NAME : X-n110-k13
COMMENT : "Generated by Uchoa, Pecin, Pessoa, Poggi, Subramanian, and Vidal (2013)"
TYPE : CVRP
DIMENSION : 110
EDGE_WEIGHT_TYPE : EUC_2D
EDGE_WEIGHT_FORMAT : 
CAPACITY : 66
DISTANCE : 1.79769e+308
SERVICE_TIME : 0
NODE_COORD_SECTION
1 500 500
2 740 442
3 261 710
4 578 522
5 482 914
6 628 644
7 551 651
8 828 54
9 541 270
10 450 1000
11 521 127
12 738 809
13 323 289
14 803 214
15 556 488
16 758 937
17 875 326
18 113 509
19 491 726
20 415 355
21 946 632
22 136 120
23 117 971
24 817 246
25 491 845
26 454 801
27 676 995
28 145 557
29 166 494
30 977 318
31 363 711
32 164 501
33 833 501
34 444 958
35 828 672
36 714 57
37 51 676
38 922 16
39 673 571
40 211 471
41 590 220
42 305 311
43 953 745
44 154 753
45 918 227
46 819 671
47 675 667
48 617 176
49 706 179
50 512 443
51 302 453
52 753 786
53 331 450
54 765 990
55 249 360
56 292 887
57 371 804
58 786 186
59 382 284
60 44 552
61 107 895
62 108 928
63 523 264
64 397 120
65 25 769
66 98 623
67 946 978
68 815 696
69 314 361
70 447 695
71 878 243
72 341 648
73 363 0
74 675 83
75 998 520
76 98 111
77 267 902
78 628 746
79 940 409
80 786 488
81 323 674
82 986 151
83 790 150
84 180 944
85 533 816
86 750 789
87 589 125
88 640 911
89 99 216
90 754 659
91 828 357
92 597 587
93 929 655
94 159 781
95 955 6
96 63 435
97 130 302
98 954 687
99 866 879
100 131 686
101 519 220
102 454 928
103 415 916
104 468 833
105 109 859
106 806 568
107 907 703
108 821 135
109 622 561
110 482 689
PICKUP_AND_DELIVERY_SECTION
1 0 0 0 0 0 0
2 0 0 0 0 0 8
3 0 0 0 0 0 10
4 0 0 0 0 0 8
5 0 0 0 0 5 0
6 0 0 0 0 0 10
7 0 0 0 0 0 5
8 0 0 0 0 0 9
9 0 0 0 0 10 0
10 0 0 0 0 0 6
11 0 0 0 0 0 5
12 0 0 0 0 0 10
13 0 0 0 0 5 0
14 0 0 0 0 0 9
15 0 0 0 0 0 10
16 0 0 0 0 0 7
17 0 0 0 0 9 0
18 0 0 0 0 0 7
19 0 0 0 0 0 8
20 0 0 0 0 0 5
21 0 0 0 0 8 0
22 0 0 0 0 0 10
23 0 0 0 0 0 6
24 0 0 0 0 0 8
25 0 0 0 0 7 0
26 0 0 0 0 0 6
27 0 0 0 0 0 7
28 0 0 0 0 0 5
29 0 0 0 0 10 0
30 0 0 0 0 0 10
31 0 0 0 0 0 5
32 0 0 0 0 0 7
33 0 0 0 0 5 0
34 0 0 0 0 0 10
35 0 0 0 0 0 6
36 0 0 0 0 0 7
37 0 0 0 0 9 0
38 0 0 0 0 0 7
39 0 0 0 0 0 7
40 0 0 0 0 0 6
41 0 0 0 0 7 0
42 0 0 0 0 0 10
43 0 0 0 0 0 8
44 0 0 0 0 0 10
45 0 0 0 0 6 0
46 0 0 0 0 0 10
47 0 0 0 0 0 8
48 0 0 0 0 0 6
49 0 0 0 0 10 0
50 0 0 0 0 0 8
51 0 0 0 0 0 10
52 0 0 0 0 0 10
53 0 0 0 0 6 0
54 0 0 0 0 0 5
55 0 0 0 0 0 5
56 0 0 0 0 0 10
57 0 0 0 0 5 0
58 0 0 0 0 0 10
59 0 0 0 0 0 8
60 0 0 0 0 0 8
61 0 0 0 0 5 0
62 0 0 0 0 0 6
63 0 0 0 0 0 7
64 0 0 0 0 0 8
65 0 0 0 0 9 0
66 0 0 0 0 0 10
67 0 0 0 0 0 8
68 0 0 0 0 0 5
69 0 0 0 0 6 0
70 0 0 0 0 0 10
71 0 0 0 0 0 8
72 0 0 0 0 0 5
73 0 0 0 0 10 0
74 0 0 0 0 0 9
75 0 0 0 0 0 7
76 0 0 0 0 0 6
77 0 0 0 0 7 0
78 0 0 0 0 0 7
79 0 0 0 0 0 6
80 0 0 0 0 0 9
81 0 0 0 0 6 0
82 0 0 0 0 0 10
83 0 0 0 0 0 9
84 0 0 0 0 0 10
85 0 0 0 0 5 0
86 0 0 0 0 0 5
87 0 0 0 0 0 7
88 0 0 0 0 0 8
89 0 0 0 0 10 0
90 0 0 0 0 0 10
91 0 0 0 0 0 10
92 0 0 0 0 0 8
93 0 0 0 0 9 0
94 0 0 0 0 0 6
95 0 0 0 0 0 6
96 0 0 0 0 0 5
97 0 0 0 0 6 0
98 0 0 0 0 0 8
99 0 0 0 0 0 5
100 0 0 0 0 0 9
101 0 0 0 0 5 0
102 0 0 0 0 0 5
103 0 0 0 0 0 6
104 0 0 0 0 0 6
105 0 0 0 0 5 0
106 0 0 0 0 0 5
107 0 0 0 0 0 7
108 0 0 0 0 0 7
109 0 0 0 0 9 0
110 0 0 0 0 0 9
